750
1000
700
700
700
699
698
697
697
696
695
695
694
694
691
691
688
686
685
685
684
683
683
683
682
682
680
679
679
678
676
676
676
676
675
674
673
673
673
671
670
668
668
666
665
664
664
662
662
660
659
659
659
657
657
656
655
655
655
654
653
652
651
650
650
650
647
646
646
646
645
645
645
644
644
643
643
643
643
643
641
640
640
640
639
637
635
633
632
632
632
631
631
630
629
629
629
628
627
627
626
626
625
624
623
622
621
620
620
617
617
616
615
614
613
613
612
611
611
611
610
609
608
608
607
606
606
606
605
605
604
604
604
600
600
598
598
598
597
596
596
594
592
591
591
590
589
589
589
588
588
588
587
587
587
587
586
586
585
585
584
583
583
582
582
582
581
579
578
578
576
576
575
573
573
572
572
572
572
571
570
568
568
567
566
566
566
565
565
563
563
562
562
562
562
562
562
561
561
561
560
560
559
559
559
558
558
557
557
556
556
556
555
555
554
554
553
553
553
553
552
551
551
551
551
550
549
549
548
547
545
545
544
544
544
543
542
542
541
538
537
537
537
537
537
536
536
535
535
534
534
534
534
532
531
530
529
529
528
528
527
527
526
525
524
524
524
523
523
522
521
521
521
521
520
520
520
519
519
519
518
517
516
516
516
515
515
514
514
514
514
514
513
513
512
512
512
510
510
509
509
509
509
508
508
506
505
505
505
504
503
502
501
501
500
500
500
500
499
499
499
499
498
497
495
493
492
492
492
490
489
489
489
488
486
486
486
486
485
485
485
484
484
482
482
482
481
481
481
481
480
479
477
474
471
471
469
468
468
468
467
464
464
463
462
462
461
461
461
460
460
458
457
457
457
457
456
456
453
452
452
452
451
451
450
449
449
449
448
447
446
446
446
445
444
444
444
444
444
444
443
443
442
442
441
440
440
440
440
440
439
436
436
434
434
432
432
431
431
431
431
430
430
430
429
429
429
427
427
427
426
426
426
426
426
426
426
424
424
424
423
423
423
422
422
422
421
420
419
419
418
418
418
418
417
417
416
416
415
415
414
414
414
413
412
412
411
410
410
409
406
406
405
405
403
403
402
401
400
400
399
399
397
397
396
396
394
394
394
394
393
393
393
393
392
392
391
388
388
388
388
387
387
386
386
385
384
383
382
382
379
377
376
375
375
374
374
374
373
373
372
372
371
370
369
369
369
369
369
368
367
366
366
366
366
365
365
365
364
363
363
363
362
362
362
361
361
360
359
359
358
358
358
354
353
353
353
349
348
348
348
348
347
347
346
345
345
343
343
342
341
339
339
339
338
338
335
335
334
332
331
331
325
324
323
323
322
322
321
321
319
319
317
317
317
317
315
315
314
313
313
312
311
311
311
310
310
310
307
306
306
305
305
303
302
301
301
299
299
297
296
296
293
292
290
289
289
289
288
288
287
287
286
284
284
284
282
282
280
279
279
278
278
277
276
276
276
276
275
274
274
272
272
271
269
268
266
266
266
265
265
264
264
264
263
262
262
262
262
262
261
261
260
259
259
258
257
257
255
254
254
253
252
252
252
251
251
250
250
249
248
248
248
248
247
247
247
246
246
245
243
243
243
242
238
237
236
235
233
233
233
232
232
231
228
228
228
228
227
227
226
225
224
224
223
223
222
219
219
218
218
217
217
216
214
214
213
212
211
210
210
210
209
208
207
207
206
204
203
203
202
200
